data/MCDM/NO_CORR/GEN_FROM_60/19_ITEMS_1000_GEN/K5019W18.KNP.mps
NAME          BLANK   
ROWS
 N  OBJROW
 L  R0000000
COLUMNS
    C0000000  OBJROW     -184.         R0000000  59.         
    C0000001  OBJROW     -435.         R0000000  446.        
    C0000002  OBJROW     -591.         R0000000  454.        
    C0000003  OBJROW     -520.         R0000000  70.         
    C0000004  OBJROW     -755.         R0000000  487.        
    C0000005  OBJROW     -8.           R0000000  915.        
    C0000006  OBJROW     -209.         R0000000  132.        
    C0000007  OBJROW     -672.         R0000000  140.        
    C0000008  OBJROW     -226.         R0000000  404.        
    C0000009  OBJROW     -361.         R0000000  23.         
    C0000010  OBJROW     -16.          R0000000  116.        
    C0000011  OBJROW     -875.         R0000000  183.        
    C0000012  OBJROW     -534.         R0000000  876.        
    C0000013  OBJROW     -365.         R0000000  135.        
    C0000014  OBJROW     -654.         R0000000  669.        
    C0000015  OBJROW     -716.         R0000000  367.        
    C0000016  OBJROW     -910.         R0000000  764.        
    C0000017  OBJROW     -292.         R0000000  102.        
    C0000018  OBJROW     -496.         R0000000  914.        
RHS
    RHS       R0000000  14132.      
BOUNDS
 BV BOUND     C0000000  1.          
 BV BOUND     C0000001  1.          
 BV BOUND     C0000002  1.          
 BV BOUND     C0000003  1.          
 BV BOUND     C0000004  1.          
 BV BOUND     C0000005  1.          
 BV BOUND     C0000006  1.          
 BV BOUND     C0000007  1.          
 BV BOUND     C0000008  1.          
 BV BOUND     C0000009  1.          
 BV BOUND     C0000010  1.          
 BV BOUND     C0000011  1.          
 BV BOUND     C0000012  1.          
 BV BOUND     C0000013  1.          
 BV BOUND     C0000014  1.          
 BV BOUND     C0000015  1.          
 BV BOUND     C0000016  1.          
 BV BOUND     C0000017  1.          
 BV BOUND     C0000018  1.          
ENDATA
