data/MCDM/NO_CORR/GEN_FROM_60/19_ITEMS_1000_GEN/K5019W18.KNP.txt
N 19
M 20
LC 19
LC 20
LC 21
LC 22
LC 23
LC 24
LC 25
LC 26
LC 27
LC 28
LC 29
LC 30
LC 31
LC 32
LC 33
LC 34
LC 35
LC 36
LC 37
LR 1
LR 2
LR 3
LR 4
LR 5
LR 6
LR 7
LR 8
LR 9
LR 10
LR 11
LR 12
LR 13
LR 14
LR 15
LR 16
LR 17
LR 18
LR 19
LR 20
LO -184
LO -435
LO -591
LO -520
LO -755
LO -8
LO -209
LO -672
LO -226
LO -361
LO -16
LO -875
LO -534
LO -365
LO -654
LO -716
LO -910
LO -292
LO -496
OS 1
IC 344
IC 491
IC 735
IC 904
IC 142
IC 267
IC 227
IC 705
IC 346
IC 193
IC 482
IC 991
IC 403
IC 912
IC 378
IC 859
IC 304
IC 841
IC 580
IB 5052
